0
0
0
0
18
0
0
0
0
0
0
0
0
0
0
0
0
0
0
0
0
0
0
1 2 1
1 3 1
1 4 1
1 5 1
1 6 1
1 7 1
1 8 0
1 9 0
1 10 0
1 11 1
1 12 0
1 13 1
1 14 1
1 15 1
1 16 1
1 17 0
1 18 0
2 3 0
2 4 0
2 5 1
2 6 1
2 7 0
2 8 0
2 9 0
2 10 0
2 11 1
2 12 0
2 13 0
2 14 0
2 15 1
2 16 1
2 17 1
2 18 0
3 4 0
3 5 0
3 6 1
3 7 0
3 8 0
3 9 0
3 10 0
3 11 0
3 12 1
3 13 0
3 14 1
3 15 1
3 16 1
3 17 0
3 18 1
4 5 1
4 6 0
4 7 1
4 8 0
4 9 1
4 10 1
4 11 0
4 12 1
4 13 1
4 14 1
4 15 0
4 16 1
4 17 1
4 18 0
5 6 1
5 7 0
5 8 0
5 9 1
5 10 1
5 11 1
5 12 0
5 13 0
5 14 1
5 15 1
5 16 1
5 17 1
5 18 1
6 7 0
6 8 0
6 9 0
6 10 0
6 11 0
6 12 1
6 13 1
6 14 0
6 15 0
6 16 1
6 17 0
6 18 0
7 8 0
7 9 1
7 10 1
7 11 1
7 12 1
7 13 1
7 14 0
7 15 1
7 16 1
7 17 1
7 18 1
8 9 0
8 10 1
8 11 1
8 12 1
8 13 0
8 14 1
8 15 1
8 16 1
8 17 1
8 18 1
9 10 0
9 11 1
9 12 1
9 13 1
9 14 1
9 15 0
9 16 1
9 17 0
9 18 0
10 11 1
10 12 0
10 13 1
10 14 1
10 15 1
10 16 1
10 17 1
10 18 1
11 12 0
11 13 0
11 14 1
11 15 1
11 16 1
11 17 1
11 18 1
12 13 1
12 14 0
12 15 1
12 16 1
12 17 0
12 18 0
13 14 0
13 15 1
13 16 0
13 17 0
13 18 0
14 15 0
14 16 1
14 17 1
14 18 1
15 16 0
15 17 0
15 18 0
16 17 1
16 18 0
17 18 0
